Route #1: 81 51 83
Route #2: 30 85 11 79
Route #3: 44 67 88 40
Route #4: 66 84 90 68
Route #5: 27 97 19
Route #6: 5 12 58
Route #7: 54 70 1
Route #8: 34 64 96 48 26 47 38
Route #9: 87 37 6 49 14
Route #10: 20 41 22 15
Route #11: 21 56 94 80
Route #12: 63 77 3
Route #13: 31 46 35
Route #14: 18 10 39
Route #15: 69 16 55 76
Route #16: 82 60 59
Route #17: 86 9 92
Route #18: 89 98 99 62 71
Route #19: 7 2 45 43 29 36 72 57
Route #20: 93 75
Route #21: 100 61 23
Route #22: 52 91 50
Route #23: 25 65 78 42 28
Route #24: 32 33 53 73 95 24
Route #25: 8 17
Route #26: 74 13 4
Cost 27591.0000
Time 16.0007